p edge 51 364
e 1 4
e 1 6
e 1 7
e 1 8
e 1 13
e 1 14
e 1 18
e 1 21
e 1 22
e 1 23
e 1 24
e 1 28
e 1 35
e 1 47
e 2 5
e 2 8
e 2 15
e 2 21
e 2 29
e 2 30
e 2 31
e 2 34
e 2 42
e 2 45
e 2 47
e 3 4
e 3 5
e 3 17
e 3 35
e 3 39
e 3 40
e 3 42
e 3 43
e 3 46
e 3 47
e 3 50
e 4 5
e 4 7
e 4 12
e 4 13
e 4 14
e 4 15
e 4 25
e 4 28
e 4 32
e 4 36
e 4 37
e 4 41
e 4 45
e 4 49
e 4 50
e 5 6
e 5 9
e 5 12
e 5 14
e 5 15
e 5 24
e 5 32
e 5 35
e 5 41
e 5 42
e 5 44
e 5 47
e 5 51
e 6 9
e 6 11
e 6 18
e 6 19
e 6 20
e 6 21
e 6 22
e 6 28
e 6 29
e 6 31
e 6 32
e 6 35
e 7 12
e 7 20
e 7 21
e 7 23
e 7 26
e 7 28
e 7 30
e 7 32
e 7 34
e 7 37
e 7 38
e 7 39
e 7 41
e 7 42
e 7 45
e 7 46
e 7 50
e 8 9
e 8 16
e 8 17
e 8 22
e 8 24
e 8 31
e 8 35
e 8 44
e 8 49
e 8 50
e 8 51
e 9 12
e 9 21
e 9 25
e 9 27
e 9 29
e 9 30
e 9 32
e 9 33
e 9 35
e 9 36
e 9 39
e 9 40
e 9 41
e 9 45
e 9 48
e 10 17
e 10 20
e 10 24
e 10 29
e 10 30
e 10 32
e 10 33
e 10 37
e 10 38
e 10 43
e 10 48
e 10 49
e 10 51
e 11 14
e 11 15
e 11 17
e 11 20
e 11 22
e 11 25
e 11 27
e 11 28
e 11 29
e 11 31
e 11 34
e 11 36
e 11 38
e 11 40
e 11 47
e 11 49
e 11 51
e 12 13
e 12 16
e 12 19
e 12 21
e 12 23
e 12 25
e 12 29
e 12 31
e 12 36
e 12 37
e 12 41
e 12 43
e 12 48
e 12 51
e 13 16
e 13 23
e 13 25
e 13 26
e 13 28
e 13 31
e 13 32
e 13 34
e 13 36
e 13 37
e 13 49
e 14 17
e 14 24
e 14 37
e 14 39
e 14 48
e 14 51
e 15 19
e 15 24
e 15 28
e 15 29
e 15 31
e 15 34
e 15 43
e 15 51
e 16 17
e 16 24
e 16 27
e 16 34
e 16 46
e 16 47
e 16 48
e 16 49
e 17 18
e 17 31
e 17 35
e 17 36
e 17 37
e 17 38
e 17 41
e 17 42
e 17 43
e 17 44
e 17 49
e 18 20
e 18 21
e 18 27
e 18 29
e 18 31
e 18 33
e 18 35
e 18 37
e 18 43
e 18 45
e 18 47
e 18 51
e 19 26
e 19 30
e 19 34
e 19 39
e 19 40
e 19 41
e 19 42
e 19 43
e 19 45
e 19 48
e 20 23
e 20 28
e 20 30
e 20 34
e 20 42
e 20 50
e 21 23
e 21 24
e 21 25
e 21 33
e 21 35
e 21 39
e 21 40
e 21 49
e 22 23
e 22 24
e 22 26
e 22 31
e 22 32
e 22 35
e 22 37
e 22 38
e 22 40
e 22 41
e 22 51
e 23 27
e 23 31
e 23 33
e 23 34
e 23 38
e 23 41
e 23 42
e 23 43
e 23 44
e 23 45
e 23 49
e 24 30
e 24 33
e 24 44
e 24 45
e 24 48
e 25 28
e 25 30
e 25 36
e 25 38
e 25 41
e 25 43
e 25 44
e 25 48
e 25 50
e 25 51
e 26 31
e 26 43
e 26 48
e 27 31
e 27 36
e 27 37
e 27 39
e 27 48
e 27 51
e 28 30
e 28 32
e 28 40
e 28 46
e 28 50
e 29 34
e 29 42
e 29 43
e 29 44
e 29 48
e 30 32
e 30 35
e 30 36
e 30 38
e 30 41
e 30 42
e 30 45
e 30 46
e 30 50
e 31 32
e 31 33
e 31 35
e 31 45
e 31 48
e 32 39
e 32 45
e 32 46
e 32 48
e 32 50
e 32 51
e 33 38
e 33 40
e 33 41
e 33 42
e 33 43
e 33 45
e 33 51
e 34 41
e 34 44
e 34 46
e 35 36
e 35 38
e 35 42
e 35 43
e 35 48
e 36 37
e 36 38
e 36 40
e 36 41
e 36 46
e 37 46
e 37 47
e 37 50
e 37 51
e 38 49
e 38 50
e 38 51
e 39 40
e 39 49
e 39 51
e 40 46
e 40 49
e 41 47
e 42 43
e 42 44
e 42 45
e 42 51
e 43 45
e 43 47
e 44 45
e 44 47
e 44 49
e 45 47
e 47 48
e 47 51
